c Reduced graph for DSJC250.1 generated by Cyril Grelier
p edge 250 3218
e 1 8
e 1 14
e 1 30
e 1 34
e 1 39
e 1 61
e 1 69
e 1 70
e 1 75
e 1 80
e 1 92
e 1 101
e 1 108
e 1 111
e 1 115
e 1 116
e 1 117
e 1 125
e 1 129
e 1 133
e 1 139
e 1 142
e 1 147
e 1 152
e 1 154
e 1 163
e 1 172
e 1 182
e 1 202
e 1 208
e 1 217
e 1 227
e 1 230
e 1 234
e 1 240
e 2 5
e 2 6
e 2 7
e 2 9
e 2 22
e 2 38
e 2 46
e 2 48
e 2 53
e 2 63
e 2 70
e 2 86
e 2 87
e 2 96
e 2 115
e 2 119
e 2 120
e 2 132
e 2 135
e 2 139
e 2 155
e 2 159
e 2 172
e 2 173
e 2 174
e 2 179
e 2 185
e 2 197
e 2 216
e 2 218
e 2 226
e 2 245
e 2 247
e 2 250
e 3 5
e 3 15
e 3 27
e 3 39
e 3 41
e 3 47
e 3 50
e 3 74
e 3 81
e 3 110
e 3 115
e 3 116
e 3 126
e 3 154
e 3 158
e 3 162
e 3 169
e 3 170
e 3 174
e 3 181
e 3 189
e 3 192
e 3 196
e 3 201
e 3 203
e 3 210
e 3 213
e 3 221
e 3 225
e 3 226
e 3 228
e 3 233
e 3 240
e 4 13
e 4 16
e 4 40
e 4 41
e 4 56
e 4 68
e 4 74
e 4 80
e 4 86
e 4 91
e 4 94
e 4 99
e 4 117
e 4 126
e 4 144
e 4 148
e 4 157
e 4 195
e 4 211
e 4 212
e 4 214
e 4 219
e 4 226
e 4 230
e 4 233
e 4 234
e 4 235
e 4 244
e 5 10
e 5 18
e 5 24
e 5 25
e 5 39
e 5 45
e 5 61
e 5 70
e 5 75
e 5 121
e 5 128
e 5 131
e 5 136
e 5 141
e 5 153
e 5 155
e 5 162
e 5 181
e 5 199
e 5 211
e 5 220
e 5 224
e 5 230
e 5 236
e 6 13
e 6 16
e 6 19
e 6 60
e 6 87
e 6 88
e 6 89
e 6 102
e 6 104
e 6 127
e 6 137
e 6 141
e 6 144
e 6 147
e 6 156
e 6 186
e 6 194
e 6 198
e 6 213
e 6 220
e 6 223
e 6 226
e 6 245
e 6 248
e 7 30
e 7 48
e 7 90
e 7 105
e 7 110
e 7 127
e 7 134
e 7 149
e 7 159
e 7 164
e 7 165
e 7 179
e 7 186
e 7 195
e 7 199
e 7 202
e 7 211
e 7 212
e 7 220
e 7 225
e 7 229
e 7 244
e 7 250
e 8 17
e 8 19
e 8 27
e 8 46
e 8 61
e 8 77
e 8 85
e 8 91
e 8 93
e 8 101
e 8 109
e 8 112
e 8 116
e 8 131
e 8 132
e 8 145
e 8 169
e 8 172
e 8 196
e 8 217
e 8 230
e 8 231
e 9 20
e 9 31
e 9 32
e 9 38
e 9 57
e 9 62
e 9 68
e 9 94
e 9 105
e 9 125
e 9 145
e 9 148
e 9 161
e 9 182
e 9 198
e 9 202
e 9 211
e 9 216
e 9 221
e 9 223
e 10 14
e 10 42
e 10 55
e 10 67
e 10 78
e 10 97
e 10 114
e 10 132
e 10 135
e 10 150
e 10 161
e 10 164
e 10 165
e 10 167
e 10 178
e 10 192
e 10 198
e 10 231
e 10 236
e 11 22
e 11 24
e 11 29
e 11 41
e 11 42
e 11 47
e 11 50
e 11 88
e 11 93
e 11 121
e 11 126
e 11 150
e 11 157
e 11 159
e 11 201
e 11 215
e 11 223
e 12 14
e 12 45
e 12 53
e 12 63
e 12 77
e 12 85
e 12 98
e 12 102
e 12 115
e 12 117
e 12 136
e 12 148
e 12 155
e 12 156
e 12 195
e 12 217
e 12 224
e 13 25
e 13 54
e 13 59
e 13 60
e 13 84
e 13 143
e 13 149
e 13 156
e 13 157
e 13 166
e 13 191
e 13 235
e 14 17
e 14 19
e 14 28
e 14 42
e 14 44
e 14 49
e 14 61
e 14 69
e 14 86
e 14 90
e 14 131
e 14 133
e 14 135
e 14 152
e 14 153
e 14 154
e 14 158
e 14 164
e 14 180
e 14 181
e 14 189
e 14 195
e 14 196
e 14 202
e 14 203
e 14 220
e 14 222
e 14 223
e 14 228
e 14 233
e 14 234
e 14 243
e 15 23
e 15 28
e 15 29
e 15 39
e 15 40
e 15 44
e 15 55
e 15 56
e 15 62
e 15 67
e 15 68
e 15 69
e 15 76
e 15 78
e 15 83
e 15 89
e 15 95
e 15 119
e 15 120
e 15 125
e 15 126
e 15 129
e 15 145
e 15 156
e 15 162
e 15 166
e 15 173
e 15 179
e 15 189
e 15 194
e 15 203
e 15 214
e 15 221
e 15 225
e 16 19
e 16 21
e 16 30
e 16 32
e 16 46
e 16 55
e 16 67
e 16 74
e 16 80
e 16 83
e 16 86
e 16 89
e 16 92
e 16 98
e 16 104
e 16 114
e 16 125
e 16 126
e 16 128
e 16 142
e 16 153
e 16 157
e 16 165
e 16 170
e 16 199
e 16 210
e 16 221
e 16 226
e 16 228
e 16 243
e 16 250
e 17 18
e 17 21
e 17 23
e 17 35
e 17 43
e 17 65
e 17 70
e 17 92
e 17 104
e 17 122
e 17 132
e 17 134
e 17 143
e 17 149
e 17 161
e 17 164
e 17 168
e 17 171
e 17 181
e 17 186
e 17 190
e 17 196
e 17 211
e 17 226
e 17 228
e 17 229
e 17 230
e 17 233
e 17 235
e 17 248
e 18 20
e 18 23
e 18 31
e 18 36
e 18 39
e 18 41
e 18 50
e 18 57
e 18 59
e 18 74
e 18 78
e 18 96
e 18 106
e 18 110
e 18 114
e 18 116
e 18 122
e 18 132
e 18 145
e 18 150
e 18 153
e 18 190
e 18 198
e 18 208
e 18 211
e 18 213
e 18 216
e 18 245
e 19 23
e 19 27
e 19 33
e 19 37
e 19 53
e 19 71
e 19 85
e 19 102
e 19 107
e 19 123
e 19 135
e 19 137
e 19 141
e 19 143
e 19 148
e 19 164
e 19 196
e 19 207
e 19 223
e 19 225
e 19 230
e 19 231
e 19 241
e 19 242
e 19 248
e 20 36
e 20 46
e 20 53
e 20 70
e 20 79
e 20 85
e 20 92
e 20 93
e 20 111
e 20 112
e 20 116
e 20 121
e 20 122
e 20 126
e 20 129
e 20 134
e 20 142
e 20 171
e 20 173
e 20 174
e 20 211
e 20 224
e 20 231
e 20 241
e 20 243
e 20 244
e 21 22
e 21 29
e 21 38
e 21 39
e 21 65
e 21 75
e 21 92
e 21 94
e 21 113
e 21 117
e 21 132
e 21 144
e 21 149
e 21 166
e 21 167
e 21 177
e 21 181
e 21 205
e 21 214
e 21 216
e 21 218
e 21 228
e 21 237
e 21 238
e 22 25
e 22 33
e 22 39
e 22 53
e 22 78
e 22 82
e 22 89
e 22 98
e 22 112
e 22 114
e 22 133
e 22 152
e 22 153
e 22 157
e 22 165
e 22 166
e 22 180
e 22 183
e 22 209
e 22 211
e 22 226
e 22 232
e 23 38
e 23 49
e 23 71
e 23 81
e 23 94
e 23 118
e 23 121
e 23 136
e 23 139
e 23 140
e 23 144
e 23 149
e 23 155
e 23 162
e 23 178
e 23 183
e 23 198
e 23 213
e 23 221
e 23 222
e 23 240
e 24 27
e 24 30
e 24 56
e 24 58
e 24 60
e 24 62
e 24 78
e 24 92
e 24 111
e 24 114
e 24 122
e 24 129
e 24 144
e 24 160
e 24 173
e 24 187
e 24 207
e 24 224
e 24 225
e 24 237
e 25 30
e 25 41
e 25 59
e 25 61
e 25 81
e 25 106
e 25 117
e 25 137
e 25 144
e 25 145
e 25 161
e 25 174
e 25 189
e 25 197
e 25 214
e 25 221
e 25 242
e 25 245
e 26 29
e 26 47
e 26 55
e 26 64
e 26 67
e 26 74
e 26 105
e 26 113
e 26 149
e 26 168
e 26 170
e 26 179
e 26 187
e 26 211
e 26 212
e 26 213
e 26 216
e 26 222
e 26 229
e 26 238
e 27 37
e 27 47
e 27 57
e 27 66
e 27 68
e 27 80
e 27 82
e 27 83
e 27 102
e 27 116
e 27 142
e 27 146
e 27 153
e 27 154
e 27 165
e 27 168
e 27 170
e 27 174
e 27 175
e 27 191
e 27 201
e 27 203
e 27 206
e 27 225
e 27 228
e 27 249
e 28 35
e 28 42
e 28 48
e 28 59
e 28 68
e 28 70
e 28 73
e 28 77
e 28 85
e 28 88
e 28 90
e 28 111
e 28 113
e 28 129
e 28 136
e 28 152
e 28 154
e 28 166
e 28 182
e 28 195
e 28 220
e 28 226
e 28 227
e 28 238
e 28 241
e 28 242
e 28 243
e 29 31
e 29 38
e 29 44
e 29 47
e 29 48
e 29 58
e 29 65
e 29 88
e 29 100
e 29 102
e 29 103
e 29 112
e 29 130
e 29 135
e 29 140
e 29 144
e 29 158
e 29 170
e 29 171
e 29 188
e 29 194
e 29 213
e 29 229
e 29 235
e 29 246
e 30 38
e 30 40
e 30 68
e 30 79
e 30 89
e 30 100
e 30 110
e 30 112
e 30 115
e 30 130
e 30 131
e 30 184
e 30 201
e 30 217
e 30 228
e 30 230
e 30 232
e 30 237
e 30 243
e 30 249
e 31 40
e 31 44
e 31 49
e 31 53
e 31 67
e 31 75
e 31 86
e 31 91
e 31 98
e 31 115
e 31 118
e 31 132
e 31 146
e 31 149
e 31 157
e 31 183
e 31 199
e 31 210
e 31 222
e 31 239
e 31 250
e 32 34
e 32 48
e 32 50
e 32 55
e 32 62
e 32 69
e 32 117
e 32 120
e 32 155
e 32 161
e 32 174
e 32 182
e 32 195
e 32 205
e 32 211
e 32 215
e 32 220
e 32 224
e 32 227
e 32 231
e 32 240
e 32 246
e 33 34
e 33 35
e 33 44
e 33 45
e 33 56
e 33 67
e 33 99
e 33 103
e 33 134
e 33 139
e 33 144
e 33 164
e 33 170
e 33 185
e 33 196
e 33 208
e 33 218
e 33 224
e 33 231
e 33 234
e 33 245
e 34 35
e 34 38
e 34 39
e 34 43
e 34 55
e 34 57
e 34 62
e 34 70
e 34 89
e 34 103
e 34 128
e 34 133
e 34 142
e 34 152
e 34 163
e 34 186
e 34 194
e 34 196
e 34 239
e 35 41
e 35 48
e 35 49
e 35 60
e 35 66
e 35 76
e 35 100
e 35 108
e 35 126
e 35 136
e 35 167
e 35 189
e 35 209
e 35 224
e 35 225
e 35 227
e 35 228
e 35 244
e 36 46
e 36 47
e 36 49
e 36 68
e 36 102
e 36 115
e 36 132
e 36 162
e 36 172
e 36 203
e 36 206
e 36 210
e 36 230
e 36 248
e 37 41
e 37 59
e 37 75
e 37 118
e 37 139
e 37 161
e 37 163
e 37 174
e 37 178
e 37 205
e 37 210
e 37 221
e 37 238
e 38 41
e 38 68
e 38 86
e 38 87
e 38 93
e 38 99
e 38 103
e 38 108
e 38 110
e 38 111
e 38 116
e 38 120
e 38 128
e 38 136
e 38 139
e 38 155
e 38 158
e 38 159
e 38 163
e 38 171
e 38 199
e 38 209
e 38 210
e 38 214
e 38 222
e 38 236
e 38 240
e 38 241
e 38 245
e 39 51
e 39 56
e 39 58
e 39 70
e 39 81
e 39 89
e 39 95
e 39 102
e 39 111
e 39 112
e 39 130
e 39 131
e 39 161
e 39 167
e 39 168
e 39 173
e 39 197
e 39 203
e 39 211
e 39 214
e 39 221
e 39 232
e 39 241
e 39 246
e 39 247
e 39 249
e 39 250
e 40 64
e 40 74
e 40 76
e 40 81
e 40 88
e 40 90
e 40 102
e 40 108
e 40 119
e 40 120
e 40 121
e 40 129
e 40 138
e 40 148
e 40 156
e 40 157
e 40 174
e 40 175
e 40 179
e 40 182
e 40 186
e 40 196
e 40 199
e 40 211
e 40 216
e 40 221
e 40 230
e 40 234
e 40 241
e 40 245
e 41 43
e 41 45
e 41 49
e 41 54
e 41 71
e 41 76
e 41 77
e 41 108
e 41 118
e 41 127
e 41 134
e 41 135
e 41 146
e 41 160
e 41 164
e 41 165
e 41 182
e 41 201
e 41 211
e 41 212
e 41 224
e 41 239
e 41 244
e 42 44
e 42 47
e 42 85
e 42 99
e 42 105
e 42 134
e 42 135
e 42 136
e 42 141
e 42 161
e 42 164
e 42 165
e 42 173
e 42 185
e 42 191
e 42 200
e 42 204
e 42 213
e 42 214
e 42 217
e 42 225
e 42 226
e 42 227
e 42 230
e 42 238
e 43 55
e 43 57
e 43 70
e 43 74
e 43 76
e 43 87
e 43 91
e 43 95
e 43 113
e 43 115
e 43 125
e 43 133
e 43 134
e 43 146
e 43 151
e 43 159
e 43 167
e 43 181
e 43 183
e 43 195
e 43 206
e 43 212
e 43 221
e 43 222
e 43 236
e 44 46
e 44 48
e 44 73
e 44 81
e 44 89
e 44 99
e 44 101
e 44 106
e 44 112
e 44 113
e 44 128
e 44 132
e 44 143
e 44 146
e 44 157
e 44 166
e 44 171
e 44 183
e 44 198
e 44 220
e 44 229
e 44 246
e 45 46
e 45 54
e 45 60
e 45 66
e 45 69
e 45 81
e 45 89
e 45 103
e 45 116
e 45 119
e 45 130
e 45 157
e 45 160
e 45 161
e 45 164
e 45 169
e 45 172
e 45 181
e 45 185
e 45 189
e 45 206
e 45 213
e 45 215
e 45 229
e 46 47
e 46 63
e 46 65
e 46 67
e 46 76
e 46 80
e 46 94
e 46 104
e 46 126
e 46 128
e 46 136
e 46 154
e 46 155
e 46 163
e 46 183
e 46 193
e 46 198
e 46 203
e 46 208
e 46 209
e 46 229
e 47 66
e 47 87
e 47 103
e 47 107
e 47 114
e 47 118
e 47 119
e 47 126
e 47 142
e 47 143
e 47 155
e 47 178
e 47 189
e 47 190
e 47 212
e 47 220
e 47 235
e 48 66
e 48 70
e 48 71
e 48 76
e 48 104
e 48 109
e 48 147
e 48 155
e 48 171
e 48 182
e 48 186
e 48 200
e 48 208
e 48 221
e 48 235
e 48 245
e 48 250
e 49 68
e 49 70
e 49 79
e 49 86
e 49 88
e 49 97
e 49 102
e 49 106
e 49 116
e 49 118
e 49 121
e 49 126
e 49 130
e 49 170
e 49 199
e 49 207
e 49 231
e 49 234
e 50 56
e 50 64
e 50 68
e 50 87
e 50 111
e 50 112
e 50 120
e 50 127
e 50 131
e 50 143
e 50 168
e 50 172
e 50 180
e 50 186
e 50 187
e 50 198
e 50 211
e 50 220
e 50 229
e 50 247
e 51 86
e 51 97
e 51 101
e 51 125
e 51 127
e 51 131
e 51 132
e 51 140
e 51 142
e 51 156
e 51 157
e 51 159
e 51 185
e 51 194
e 51 200
e 51 216
e 51 217
e 51 224
e 51 226
e 51 228
e 51 237
e 51 246
e 52 55
e 52 56
e 52 75
e 52 83
e 52 93
e 52 107
e 52 110
e 52 111
e 52 117
e 52 126
e 52 129
e 52 135
e 52 139
e 52 153
e 52 156
e 52 193
e 52 202
e 52 203
e 52 207
e 52 212
e 52 242
e 53 80
e 53 91
e 53 104
e 53 116
e 53 127
e 53 146
e 53 157
e 53 178
e 53 199
e 53 210
e 53 215
e 53 235
e 53 237
e 53 243
e 53 248
e 54 63
e 54 93
e 54 100
e 54 111
e 54 115
e 54 134
e 54 142
e 54 156
e 54 163
e 54 181
e 54 212
e 54 222
e 54 223
e 54 228
e 54 243
e 55 56
e 55 57
e 55 73
e 55 86
e 55 91
e 55 94
e 55 97
e 55 100
e 55 106
e 55 112
e 55 120
e 55 124
e 55 126
e 55 151
e 55 155
e 55 161
e 55 173
e 55 176
e 55 187
e 55 208
e 55 223
e 55 250
e 56 85
e 56 91
e 56 97
e 56 107
e 56 114
e 56 116
e 56 124
e 56 129
e 56 138
e 56 141
e 56 149
e 56 150
e 56 154
e 56 163
e 56 174
e 56 194
e 56 198
e 56 207
e 56 214
e 56 222
e 56 230
e 56 239
e 57 59
e 57 61
e 57 62
e 57 64
e 57 68
e 57 70
e 57 71
e 57 79
e 57 109
e 57 112
e 57 118
e 57 123
e 57 135
e 57 143
e 57 165
e 57 175
e 57 185
e 57 186
e 57 199
e 57 210
e 57 221
e 57 222
e 57 229
e 58 92
e 58 96
e 58 97
e 58 102
e 58 116
e 58 121
e 58 128
e 58 130
e 58 132
e 58 136
e 58 142
e 58 150
e 58 162
e 58 170
e 58 176
e 58 177
e 58 183
e 58 198
e 58 199
e 58 202
e 58 209
e 58 223
e 58 234
e 58 235
e 58 244
e 58 248
e 59 78
e 59 82
e 59 84
e 59 87
e 59 88
e 59 101
e 59 107
e 59 111
e 59 124
e 59 130
e 59 132
e 59 158
e 59 162
e 59 173
e 59 186
e 59 208
e 59 209
e 59 212
e 59 220
e 59 233
e 59 246
e 59 249
e 60 64
e 60 81
e 60 86
e 60 89
e 60 101
e 60 102
e 60 108
e 60 123
e 60 130
e 60 139
e 60 162
e 60 166
e 60 169
e 60 171
e 60 175
e 60 177
e 60 197
e 60 215
e 60 220
e 60 230
e 60 240
e 60 246
e 61 76
e 61 79
e 61 87
e 61 89
e 61 100
e 61 107
e 61 114
e 61 128
e 61 129
e 61 143
e 61 149
e 61 158
e 61 169
e 61 189
e 61 194
e 61 196
e 61 224
e 61 229
e 62 88
e 62 110
e 62 114
e 62 115
e 62 120
e 62 134
e 62 140
e 62 153
e 62 166
e 62 167
e 62 175
e 62 184
e 62 195
e 62 200
e 62 223
e 62 225
e 62 239
e 63 68
e 63 69
e 63 87
e 63 90
e 63 124
e 63 128
e 63 130
e 63 133
e 63 147
e 63 158
e 63 163
e 63 174
e 63 177
e 63 179
e 63 235
e 63 239
e 63 241
e 63 249
e 64 69
e 64 72
e 64 75
e 64 83
e 64 112
e 64 114
e 64 128
e 64 133
e 64 138
e 64 172
e 64 180
e 64 183
e 64 187
e 64 196
e 64 202
e 64 222
e 64 231
e 65 66
e 65 69
e 65 71
e 65 72
e 65 108
e 65 119
e 65 126
e 65 138
e 65 144
e 65 162
e 65 165
e 65 184
e 65 188
e 65 199
e 65 219
e 65 241
e 65 245
e 65 247
e 66 68
e 66 94
e 66 111
e 66 131
e 66 143
e 66 157
e 66 175
e 66 204
e 66 226
e 66 240
e 66 244
e 67 88
e 67 98
e 67 102
e 67 103
e 67 104
e 67 107
e 67 114
e 67 130
e 67 134
e 67 142
e 67 143
e 67 145
e 67 146
e 67 147
e 67 152
e 67 153
e 67 158
e 67 165
e 67 174
e 67 180
e 67 183
e 67 188
e 67 193
e 67 203
e 67 221
e 67 228
e 67 229
e 67 233
e 67 245
e 68 79
e 68 93
e 68 101
e 68 114
e 68 123
e 68 142
e 68 173
e 68 176
e 68 177
e 68 179
e 68 182
e 68 197
e 68 200
e 68 213
e 68 222
e 68 225
e 68 229
e 68 240
e 68 241
e 68 247
e 68 250
e 69 76
e 69 83
e 69 90
e 69 91
e 69 104
e 69 110
e 69 113
e 69 131
e 69 133
e 69 137
e 69 144
e 69 151
e 69 153
e 69 171
e 69 176
e 69 186
e 69 187
e 69 195
e 69 197
e 69 216
e 69 222
e 69 231
e 69 236
e 69 242
e 70 79
e 70 81
e 70 86
e 70 89
e 70 93
e 70 106
e 70 108
e 70 118
e 70 122
e 70 126
e 70 131
e 70 134
e 70 139
e 70 145
e 70 159
e 70 161
e 70 202
e 70 209
e 70 210
e 71 87
e 71 88
e 71 89
e 71 103
e 71 108
e 71 118
e 71 129
e 71 131
e 71 133
e 71 144
e 71 147
e 71 153
e 71 170
e 71 174
e 71 178
e 71 179
e 71 189
e 71 204
e 71 212
e 71 228
e 71 238
e 71 239
e 71 240
e 71 248
e 72 77
e 72 87
e 72 95
e 72 101
e 72 105
e 72 112
e 72 113
e 72 129
e 72 137
e 72 138
e 72 142
e 72 152
e 72 159
e 72 175
e 72 178
e 72 182
e 72 188
e 72 194
e 72 199
e 72 201
e 72 214
e 72 221
e 72 227
e 72 228
e 72 240
e 72 243
e 72 248
e 73 76
e 73 90
e 73 101
e 73 106
e 73 113
e 73 120
e 73 126
e 73 133
e 73 139
e 73 140
e 73 143
e 73 144
e 73 147
e 73 152
e 73 171
e 73 173
e 73 183
e 73 201
e 73 203
e 73 207
e 73 212
e 73 221
e 73 224
e 73 227
e 73 237
e 74 79
e 74 92
e 74 96
e 74 100
e 74 116
e 74 123
e 74 127
e 74 133
e 74 147
e 74 156
e 74 163
e 74 189
e 74 190
e 74 204
e 74 206
e 74 215
e 74 221
e 74 231
e 74 238
e 74 239
e 74 245
e 75 83
e 75 88
e 75 93
e 75 108
e 75 118
e 75 124
e 75 126
e 75 139
e 75 146
e 75 182
e 75 192
e 75 196
e 75 197
e 75 199
e 75 209
e 75 218
e 75 224
e 75 230
e 75 238
e 75 248
e 76 79
e 76 81
e 76 82
e 76 88
e 76 97
e 76 102
e 76 132
e 76 163
e 76 220
e 76 223
e 76 224
e 76 226
e 76 231
e 76 234
e 77 88
e 77 101
e 77 112
e 77 118
e 77 149
e 77 155
e 77 165
e 77 166
e 77 172
e 77 175
e 77 180
e 77 187
e 77 198
e 77 202
e 77 208
e 77 222
e 77 226
e 77 233
e 77 247
e 78 84
e 78 86
e 78 99
e 78 100
e 78 102
e 78 115
e 78 138
e 78 151
e 78 156
e 78 163
e 78 167
e 78 171
e 78 181
e 78 187
e 78 218
e 78 220
e 78 238
e 79 96
e 79 140
e 79 142
e 79 145
e 79 165
e 79 169
e 79 172
e 79 174
e 79 177
e 79 179
e 79 198
e 79 207
e 80 91
e 80 93
e 80 102
e 80 106
e 80 109
e 80 129
e 80 132
e 80 172
e 80 173
e 80 176
e 80 192
e 80 194
e 80 195
e 80 238
e 81 87
e 81 124
e 81 150
e 81 164
e 81 168
e 81 193
e 81 200
e 81 204
e 81 239
e 81 246
e 82 91
e 82 130
e 82 139
e 82 148
e 82 149
e 82 154
e 82 156
e 82 171
e 82 175
e 82 194
e 82 202
e 82 211
e 82 226
e 82 237
e 82 238
e 83 89
e 83 92
e 83 100
e 83 110
e 83 117
e 83 129
e 83 142
e 83 171
e 83 205
e 83 238
e 83 244
e 84 99
e 84 106
e 84 131
e 84 157
e 84 168
e 84 173
e 84 190
e 84 205
e 84 210
e 84 212
e 84 222
e 84 223
e 84 239
e 84 244
e 85 105
e 85 109
e 85 111
e 85 122
e 85 139
e 85 140
e 85 156
e 85 226
e 86 106
e 86 109
e 86 112
e 86 115
e 86 142
e 86 145
e 86 150
e 86 156
e 86 161
e 86 165
e 86 178
e 86 188
e 86 190
e 86 194
e 86 196
e 86 199
e 86 204
e 86 212
e 86 217
e 86 219
e 86 230
e 86 231
e 86 241
e 86 243
e 87 92
e 87 97
e 87 105
e 87 122
e 87 126
e 87 127
e 87 129
e 87 137
e 87 144
e 87 161
e 87 164
e 87 165
e 87 166
e 87 167
e 87 189
e 87 191
e 87 196
e 87 197
e 87 216
e 87 228
e 87 233
e 87 237
e 87 250
e 88 100
e 88 104
e 88 110
e 88 121
e 88 122
e 88 126
e 88 128
e 88 132
e 88 134
e 88 135
e 88 137
e 88 140
e 88 142
e 88 151
e 88 154
e 88 177
e 88 193
e 88 195
e 88 201
e 88 209
e 88 239
e 88 244
e 89 90
e 89 98
e 89 107
e 89 118
e 89 128
e 89 139
e 89 143
e 89 149
e 89 153
e 89 161
e 89 164
e 89 166
e 89 170
e 89 178
e 89 210
e 89 216
e 89 219
e 89 220
e 89 228
e 89 240
e 90 96
e 90 103
e 90 110
e 90 127
e 90 128
e 90 129
e 90 140
e 90 141
e 90 143
e 90 164
e 90 177
e 90 187
e 90 193
e 90 197
e 90 199
e 90 200
e 90 222
e 90 230
e 90 240
e 90 241
e 90 243
e 90 244
e 90 249
e 91 93
e 91 103
e 91 106
e 91 109
e 91 131
e 91 142
e 91 144
e 91 163
e 91 170
e 91 188
e 91 189
e 91 194
e 91 209
e 91 221
e 91 232
e 91 237
e 91 238
e 91 246
e 91 250
e 92 94
e 92 95
e 92 100
e 92 106
e 92 121
e 92 122
e 92 167
e 92 175
e 92 179
e 92 183
e 92 196
e 92 197
e 92 199
e 92 206
e 92 209
e 92 243
e 92 244
e 92 247
e 93 95
e 93 108
e 93 114
e 93 130
e 93 143
e 93 144
e 93 157
e 93 160
e 93 162
e 93 186
e 93 198
e 93 199
e 93 201
e 93 206
e 93 216
e 93 244
e 94 100
e 94 112
e 94 121
e 94 127
e 94 128
e 94 156
e 94 171
e 94 176
e 94 182
e 94 196
e 94 205
e 94 209
e 94 220
e 94 223
e 94 225
e 94 229
e 94 231
e 94 238
e 95 103
e 95 105
e 95 107
e 95 112
e 95 113
e 95 116
e 95 129
e 95 156
e 95 160
e 95 171
e 95 191
e 95 198
e 95 207
e 95 218
e 95 222
e 95 240
e 95 247
e 95 249
e 96 98
e 96 102
e 96 103
e 96 111
e 96 116
e 96 126
e 96 132
e 96 142
e 96 143
e 96 177
e 96 182
e 96 208
e 96 211
e 96 217
e 96 233
e 96 235
e 96 246
e 97 101
e 97 110
e 97 118
e 97 131
e 97 133
e 97 140
e 97 147
e 97 155
e 97 170
e 97 186
e 97 193
e 97 204
e 97 213
e 97 214
e 97 222
e 98 110
e 98 111
e 98 112
e 98 119
e 98 120
e 98 123
e 98 180
e 98 194
e 98 210
e 98 212
e 98 221
e 98 231
e 98 232
e 98 235
e 98 236
e 98 246
e 99 102
e 99 104
e 99 110
e 99 140
e 99 145
e 99 149
e 99 164
e 99 166
e 99 171
e 99 182
e 99 203
e 99 208
e 99 230
e 99 233
e 99 245
e 100 105
e 100 117
e 100 125
e 100 132
e 100 134
e 100 136
e 100 150
e 100 161
e 100 163
e 100 165
e 100 168
e 100 169
e 100 171
e 100 180
e 100 181
e 100 193
e 100 213
e 100 230
e 100 239
e 100 240
e 100 243
e 101 110
e 101 117
e 101 119
e 101 124
e 101 133
e 101 138
e 101 152
e 101 160
e 101 164
e 101 168
e 101 179
e 101 196
e 101 208
e 101 217
e 101 218
e 101 224
e 101 228
e 101 229
e 101 230
e 101 234
e 101 242
e 102 123
e 102 140
e 102 175
e 102 177
e 102 187
e 102 188
e 102 192
e 102 201
e 102 205
e 102 222
e 102 225
e 102 231
e 103 109
e 103 121
e 103 135
e 103 147
e 103 167
e 103 171
e 103 188
e 103 194
e 103 196
e 103 210
e 103 217
e 103 246
e 104 108
e 104 125
e 104 126
e 104 127
e 104 133
e 104 150
e 104 174
e 104 188
e 104 196
e 104 207
e 104 218
e 104 232
e 104 249
e 105 125
e 105 126
e 105 136
e 105 161
e 105 171
e 105 178
e 105 205
e 105 208
e 105 209
e 105 213
e 105 219
e 105 226
e 105 245
e 105 247
e 106 108
e 106 116
e 106 124
e 106 129
e 106 136
e 106 145
e 106 160
e 106 173
e 106 177
e 106 182
e 106 210
e 107 120
e 107 136
e 107 148
e 107 164
e 107 165
e 107 169
e 107 184
e 107 206
e 107 215
e 107 224
e 107 237
e 107 243
e 108 123
e 108 127
e 108 150
e 108 167
e 108 212
e 108 237
e 108 248
e 109 121
e 109 150
e 109 165
e 109 166
e 109 170
e 109 200
e 109 208
e 109 226
e 110 115
e 110 118
e 110 127
e 110 131
e 110 137
e 110 147
e 110 162
e 110 164
e 110 168
e 110 191
e 110 195
e 110 204
e 110 206
e 110 210
e 110 216
e 110 220
e 110 221
e 110 224
e 110 235
e 110 236
e 110 244
e 110 248
e 111 123
e 111 125
e 111 128
e 111 130
e 111 132
e 111 138
e 111 169
e 111 176
e 111 187
e 111 191
e 111 201
e 111 203
e 111 215
e 111 220
e 111 223
e 111 232
e 111 240
e 111 243
e 112 115
e 112 137
e 112 146
e 112 147
e 112 148
e 112 153
e 112 168
e 112 178
e 112 185
e 112 198
e 112 203
e 112 221
e 112 222
e 112 232
e 113 117
e 113 122
e 113 127
e 113 131
e 113 140
e 113 147
e 113 150
e 113 151
e 113 162
e 113 164
e 113 168
e 113 177
e 113 189
e 113 202
e 113 206
e 113 224
e 113 226
e 113 232
e 113 233
e 113 236
e 114 115
e 114 117
e 114 133
e 114 135
e 114 142
e 114 146
e 114 151
e 114 160
e 114 165
e 114 171
e 114 181
e 114 216
e 114 223
e 114 232
e 114 236
e 114 244
e 115 141
e 115 158
e 115 162
e 115 168
e 115 169
e 115 170
e 115 184
e 115 194
e 115 197
e 115 202
e 115 204
e 115 213
e 115 217
e 115 229
e 116 124
e 116 126
e 116 129
e 116 143
e 116 148
e 116 149
e 116 151
e 116 161
e 116 180
e 116 201
e 116 238
e 116 242
e 116 243
e 117 130
e 117 134
e 117 135
e 117 172
e 117 177
e 117 180
e 117 194
e 117 206
e 117 214
e 117 219
e 117 221
e 117 223
e 117 226
e 117 227
e 117 244
e 117 250
e 118 128
e 118 142
e 118 156
e 118 161
e 118 170
e 118 182
e 118 194
e 118 218
e 118 229
e 118 237
e 118 245
e 118 247
e 119 121
e 119 129
e 119 146
e 119 155
e 119 165
e 119 172
e 119 178
e 119 187
e 119 188
e 119 195
e 119 214
e 119 215
e 119 229
e 119 233
e 119 239
e 119 247
e 119 248
e 119 249
e 120 121
e 120 122
e 120 134
e 120 146
e 120 163
e 120 172
e 120 175
e 120 182
e 120 184
e 120 186
e 120 212
e 120 220
e 120 242
e 120 247
e 121 150
e 121 166
e 121 176
e 121 178
e 121 190
e 121 196
e 121 219
e 121 224
e 121 239
e 121 242
e 122 147
e 122 148
e 122 155
e 122 161
e 122 172
e 122 173
e 122 174
e 122 189
e 122 220
e 122 233
e 122 240
e 123 125
e 123 134
e 123 136
e 123 145
e 123 161
e 123 182
e 123 212
e 123 220
e 123 228
e 123 231
e 123 242
e 124 128
e 124 141
e 124 181
e 124 185
e 124 196
e 124 197
e 124 211
e 124 232
e 124 238
e 124 244
e 125 139
e 125 187
e 125 197
e 125 203
e 125 222
e 126 128
e 126 138
e 126 148
e 126 152
e 126 162
e 126 163
e 126 165
e 126 170
e 126 178
e 126 179
e 126 188
e 126 195
e 126 236
e 126 241
e 126 242
e 126 245
e 127 129
e 127 130
e 127 131
e 127 138
e 127 146
e 127 147
e 127 170
e 127 183
e 127 184
e 127 187
e 127 194
e 127 204
e 127 207
e 127 215
e 127 224
e 127 226
e 127 227
e 127 229
e 127 232
e 127 236
e 127 241
e 128 133
e 128 140
e 128 151
e 128 153
e 128 163
e 128 175
e 128 176
e 128 183
e 128 192
e 128 216
e 128 223
e 128 226
e 128 244
e 128 246
e 129 155
e 129 164
e 129 173
e 129 176
e 129 193
e 129 196
e 129 201
e 129 213
e 129 227
e 129 239
e 129 241
e 130 140
e 130 149
e 130 152
e 130 162
e 130 165
e 130 171
e 130 180
e 130 187
e 130 189
e 130 208
e 130 209
e 130 211
e 130 213
e 130 221
e 130 234
e 130 238
e 131 147
e 131 148
e 131 151
e 131 156
e 131 183
e 131 205
e 131 206
e 131 220
e 131 224
e 131 227
e 131 233
e 131 234
e 131 243
e 132 133
e 132 139
e 132 140
e 132 165
e 132 166
e 132 195
e 132 225
e 132 232
e 132 242
e 132 244
e 133 135
e 133 144
e 133 165
e 133 167
e 133 175
e 133 188
e 133 197
e 133 206
e 133 208
e 133 234
e 133 249
e 134 137
e 134 141
e 134 144
e 134 151
e 134 164
e 134 172
e 134 178
e 134 193
e 134 223
e 134 225
e 134 241
e 134 248
e 135 137
e 135 143
e 135 146
e 135 150
e 135 161
e 135 172
e 135 175
e 135 177
e 135 197
e 135 198
e 135 212
e 135 218
e 136 139
e 136 143
e 136 145
e 136 160
e 136 198
e 136 199
e 136 200
e 136 224
e 136 225
e 136 227
e 136 239
e 136 242
e 137 144
e 137 156
e 137 157
e 137 177
e 137 178
e 137 212
e 137 215
e 137 220
e 137 223
e 137 238
e 137 241
e 138 147
e 138 148
e 138 170
e 138 186
e 138 197
e 138 199
e 138 206
e 138 213
e 138 214
e 138 220
e 138 223
e 138 237
e 139 142
e 139 159
e 139 197
e 139 205
e 139 232
e 140 141
e 140 151
e 140 172
e 140 180
e 140 222
e 140 227
e 141 147
e 141 152
e 141 168
e 141 173
e 141 177
e 141 191
e 141 200
e 141 202
e 141 236
e 141 243
e 141 250
e 142 145
e 142 151
e 142 159
e 142 164
e 142 174
e 142 177
e 142 181
e 142 188
e 142 194
e 142 197
e 142 203
e 142 204
e 142 209
e 142 225
e 142 236
e 142 244
e 143 177
e 143 185
e 143 190
e 143 192
e 143 195
e 143 208
e 143 211
e 143 218
e 143 227
e 143 232
e 143 236
e 143 237
e 143 245
e 144 152
e 144 175
e 144 176
e 144 201
e 144 210
e 144 215
e 144 216
e 144 219
e 144 227
e 144 231
e 144 238
e 144 244
e 144 247
e 145 150
e 145 154
e 145 160
e 145 162
e 145 165
e 145 168
e 145 200
e 145 209
e 145 226
e 145 233
e 145 236
e 145 242
e 145 243
e 145 248
e 146 148
e 146 153
e 146 160
e 146 176
e 146 178
e 146 191
e 146 195
e 146 197
e 146 201
e 146 206
e 146 214
e 146 217
e 146 230
e 147 168
e 147 174
e 147 191
e 147 207
e 147 216
e 147 220
e 147 246
e 148 166
e 148 180
e 148 182
e 148 189
e 148 190
e 148 208
e 148 219
e 148 221
e 148 227
e 148 245
e 149 163
e 149 178
e 149 193
e 149 203
e 149 204
e 149 217
e 149 228
e 149 238
e 149 244
e 150 169
e 150 175
e 150 184
e 150 189
e 150 192
e 150 199
e 150 204
e 150 217
e 150 239
e 151 161
e 151 186
e 151 193
e 151 205
e 151 208
e 151 218
e 151 221
e 151 225
e 151 226
e 151 243
e 152 161
e 152 165
e 152 181
e 152 199
e 152 202
e 152 221
e 152 224
e 152 244
e 153 169
e 153 171
e 153 205
e 153 208
e 153 247
e 154 157
e 154 158
e 154 167
e 154 181
e 154 203
e 154 216
e 154 230
e 155 170
e 155 171
e 155 186
e 155 198
e 155 202
e 155 215
e 155 219
e 155 231
e 155 233
e 155 234
e 155 238
e 155 242
e 155 250
e 156 164
e 156 172
e 156 174
e 156 188
e 156 194
e 156 207
e 156 212
e 156 218
e 156 243
e 157 159
e 157 161
e 157 163
e 157 172
e 157 177
e 157 196
e 157 232
e 157 237
e 157 240
e 157 242
e 158 159
e 158 170
e 158 188
e 158 204
e 158 214
e 158 216
e 158 217
e 158 227
e 158 233
e 158 237
e 159 173
e 159 174
e 159 198
e 159 200
e 159 201
e 159 222
e 159 229
e 160 204
e 160 229
e 161 162
e 161 178
e 161 186
e 161 199
e 161 200
e 161 220
e 161 225
e 161 247
e 162 166
e 162 167
e 162 170
e 162 171
e 162 177
e 162 198
e 162 222
e 162 227
e 162 229
e 162 230
e 162 235
e 162 239
e 162 250
e 163 173
e 163 179
e 163 183
e 163 198
e 163 201
e 163 209
e 163 233
e 163 238
e 163 240
e 163 246
e 163 248
e 164 190
e 164 223
e 164 235
e 164 239
e 164 241
e 164 242
e 164 243
e 165 181
e 165 227
e 165 248
e 166 177
e 166 195
e 166 197
e 166 211
e 166 224
e 166 233
e 166 241
e 166 245
e 166 248
e 166 249
e 167 169
e 167 172
e 167 186
e 167 200
e 167 204
e 167 205
e 167 216
e 167 217
e 167 226
e 167 233
e 167 249
e 168 175
e 168 190
e 168 195
e 168 227
e 168 232
e 168 240
e 168 245
e 168 249
e 169 181
e 169 187
e 169 210
e 169 225
e 169 239
e 169 247
e 170 172
e 170 192
e 170 197
e 170 200
e 170 202
e 170 208
e 170 214
e 170 215
e 170 220
e 170 228
e 170 231
e 170 238
e 170 241
e 171 173
e 171 176
e 171 180
e 171 184
e 171 186
e 171 200
e 171 214
e 172 184
e 172 189
e 172 197
e 172 205
e 172 225
e 172 228
e 172 233
e 172 238
e 173 176
e 173 184
e 173 187
e 173 189
e 173 211
e 173 212
e 173 226
e 173 231
e 173 240
e 174 181
e 174 199
e 174 200
e 174 207
e 174 223
e 174 224
e 174 228
e 174 240
e 174 241
e 175 195
e 175 208
e 175 211
e 175 219
e 175 222
e 175 228
e 175 230
e 175 235
e 175 245
e 176 180
e 176 182
e 176 185
e 176 192
e 176 194
e 176 203
e 176 206
e 176 210
e 176 212
e 176 231
e 176 233
e 176 238
e 176 239
e 177 185
e 177 194
e 177 224
e 177 232
e 178 182
e 178 186
e 178 193
e 178 205
e 178 247
e 178 249
e 179 181
e 179 184
e 179 188
e 179 192
e 179 194
e 179 205
e 179 206
e 179 227
e 179 234
e 179 236
e 179 241
e 180 183
e 180 184
e 180 190
e 180 198
e 180 208
e 180 221
e 180 227
e 180 232
e 180 237
e 181 184
e 181 186
e 181 202
e 181 236
e 181 242
e 182 206
e 182 214
e 182 224
e 183 200
e 183 218
e 183 243
e 183 246
e 183 247
e 184 191
e 184 203
e 184 227
e 184 229
e 184 232
e 185 209
e 185 210
e 185 228
e 185 230
e 186 195
e 186 202
e 186 207
e 186 214
e 186 215
e 186 216
e 186 217
e 186 220
e 186 228
e 186 242
e 186 243
e 187 191
e 187 205
e 187 206
e 187 218
e 187 223
e 187 234
e 187 236
e 187 238
e 187 241
e 187 248
e 188 191
e 188 194
e 188 218
e 188 225
e 188 230
e 188 231
e 188 234
e 188 239
e 188 249
e 189 194
e 189 210
e 190 196
e 190 206
e 190 208
e 190 211
e 190 213
e 190 244
e 191 200
e 191 204
e 191 242
e 191 249
e 192 200
e 192 201
e 192 224
e 192 236
e 192 238
e 193 207
e 193 208
e 193 240
e 194 204
e 194 214
e 194 218
e 194 230
e 194 241
e 194 246
e 195 197
e 195 200
e 195 213
e 195 216
e 195 221
e 195 222
e 195 242
e 196 197
e 196 209
e 196 217
e 196 222
e 196 246
e 197 198
e 197 217
e 197 225
e 197 228
e 198 208
e 198 212
e 198 220
e 198 224
e 198 249
e 199 210
e 199 212
e 199 214
e 199 225
e 200 202
e 200 213
e 200 237
e 200 242
e 200 246
e 201 203
e 201 204
e 201 209
e 201 219
e 201 220
e 201 228
e 201 232
e 201 245
e 202 210
e 202 215
e 202 227
e 202 231
e 202 232
e 203 208
e 203 224
e 203 227
e 203 241
e 204 212
e 204 221
e 204 223
e 204 246
e 205 218
e 205 220
e 205 224
e 205 226
e 205 232
e 206 247
e 207 213
e 207 219
e 207 226
e 208 229
e 208 239
e 208 241
e 209 210
e 209 220
e 209 221
e 209 227
e 209 229
e 209 245
e 209 247
e 210 213
e 210 217
e 210 246
e 211 218
e 211 226
e 211 239
e 212 228
e 213 219
e 213 220
e 213 226
e 213 250
e 214 228
e 214 233
e 214 240
e 214 241
e 215 216
e 215 221
e 215 223
e 215 224
e 215 229
e 215 234
e 215 237
e 215 242
e 217 223
e 218 243
e 219 221
e 219 232
e 219 235
e 219 240
e 219 241
e 220 233
e 220 246
e 220 248
e 221 222
e 221 225
e 221 240
e 221 242
e 222 223
e 222 228
e 222 229
e 222 235
e 222 241
e 222 242
e 222 247
e 223 225
e 223 230
e 223 235
e 223 237
e 223 247
e 223 249
e 223 250
e 224 234
e 225 227
e 225 228
e 225 229
e 225 231
e 225 234
e 225 245
e 225 249
e 226 236
e 227 229
e 227 235
e 227 238
e 229 238
e 230 239
e 230 246
e 231 242
e 232 244
e 233 239
e 234 240
e 234 245
e 234 248
e 235 247
e 235 248
e 239 242
e 239 243
e 239 250
e 240 243
e 240 246
e 240 248
e 247 249
e 249 250
